30 30
20
3 3 27 27
3 4 27 23
3 5 15 25
3 6 27 17
3 7 24 23
3 8 27 9
3 9 27 0
3 10 24 13
3 11 18 19
3 13 24 0
3 14 21 16
3 16 21 0
3 19 18 0
3 25 15 0
4 3 11 27
4 4 11 23
4 6 11 17
4 8 11 9
4 9 11 0
11 30 0 0
